(declare-fun b41 () (_ FloatingPoint 8 24))
(declare-fun b23 () (_ FloatingPoint 8 24))
(declare-fun b26 () (_ FloatingPoint 8 24))
(declare-fun b72 () (_ FloatingPoint 8 24))
(declare-fun b32 () (_ FloatingPoint 8 24))
(declare-fun b14 () (_ FloatingPoint 8 24))
(declare-fun b35 () (_ FloatingPoint 8 24))
(declare-fun b29 () (_ FloatingPoint 8 24))
(declare-fun b69 () (_ FloatingPoint 8 24))
(declare-fun b11 () (_ FloatingPoint 8 24))
(declare-fun b38 () (_ FloatingPoint 8 24))
(declare-fun b10 () (_ FloatingPoint 8 24))
(declare-fun b20 () (_ FloatingPoint 8 24))
(declare-fun b17 () (_ FloatingPoint 8 24))
(assert (let ((.def_72 (fp.lt b38 b72)))
(let ((.def_70 (fp.lt b69 b38)))
(let ((.def_68 (fp.lt b35 b72)))
(let ((.def_66 (fp.lt b69 b35)))
(let ((.def_64 (fp.lt b32 b72)))
(let ((.def_62 (fp.lt b69 b32)))
(let ((.def_60 (fp.lt b29 b72)))
(let ((.def_58 (fp.lt b69 b29)))
(let ((.def_56 (fp.lt b26 b72)))
(let ((.def_54 (fp.lt b69 b26)))
(let ((.def_52 (fp.lt b23 b72)))
(let ((.def_50 (fp.lt b69 b23)))
(let ((.def_48 (fp.lt b20 b72)))
(let ((.def_46 (fp.lt b69 b20)))
(let ((.def_44 (fp.lt b17 b72)))
(let ((.def_42 (fp.lt b69 b17)))
(let ((.def_40 (fp.lt b14 b72)))
(let ((.def_38 (fp.lt b69 b14)))
(let ((.def_36 (fp.lt b11 b72)))
(let ((.def_13 (fp.mul RNE b11 b10)))
(let ((.def_15 (fp.mul RNE .def_13 b14)))
(let ((.def_17 (fp.mul RNE .def_15 b17)))
(let ((.def_19 (fp.mul RNE .def_17 b20)))
(let ((.def_21 (fp.mul RNE .def_19 b23)))
(let ((.def_23 (fp.mul RNE .def_21 b26)))
(let ((.def_25 (fp.mul RNE .def_23 b29)))
(let ((.def_27 (fp.mul RNE .def_25 b32)))
(let ((.def_29 (fp.mul RNE .def_27 b35)))
(let ((.def_31 (fp.mul RNE .def_29 b38)))
(let ((.def_33 (fp.lt .def_31 b41)))
(let ((.def_11 (fp.lt b69 b11)))
(let ((.def_34 (and .def_11 .def_33)))
(let ((.def_37 (and .def_34 .def_36)))
(let ((.def_39 (and .def_37 .def_38)))
(let ((.def_41 (and .def_39 .def_40)))
(let ((.def_43 (and .def_41 .def_42)))
(let ((.def_45 (and .def_43 .def_44)))
(let ((.def_47 (and .def_45 .def_46)))
(let ((.def_49 (and .def_47 .def_48)))
(let ((.def_51 (and .def_49 .def_50)))
(let ((.def_53 (and .def_51 .def_52)))
(let ((.def_55 (and .def_53 .def_54)))
(let ((.def_57 (and .def_55 .def_56)))
(let ((.def_59 (and .def_57 .def_58)))
(let ((.def_61 (and .def_59 .def_60)))
(let ((.def_63 (and .def_61 .def_62)))
(let ((.def_65 (and .def_63 .def_64)))
(let ((.def_67 (and .def_65 .def_66)))
(let ((.def_69 (and .def_67 .def_68)))
(let ((.def_71 (and .def_69 .def_70)))
(let ((.def_73 (and .def_71 .def_72)))
.def_73))))))))))))))))))))))))))))))))))))))))))))))))))))
(check-sat)
